c turning on binary mode checking
c parsing input formula with 259840 variables and 1039919 clauses
c finished parsing, read 22322415 bytes from proof file
c detected empty clause; start verification via backward checking
c 7472 of 1039919 clauses in core                            
c 7026 of 582457 lemmas in core using 151366 resolution steps
c 0 RAT lemmas in core; 898 redundant literals in core lemmas
s VERIFIED
c verification time: 2.857 seconds
